1 100 665
1 2 3 4 4 2 3 1 3 1
2
1 7
0 35.0 35.0 0.0 0.0 0 230
2 41.0 49.0 10.0 10.0 0 204 69 0 1 0 0 1 0 0 0 0 0
3 35.0 17.0 10.0 7.0 0 202 62 0 0 0 0 0 0 0 0 1 0
4 55.0 45.0 10.0 13.0 0 197 42 0 0 0 1 0 0 0 0 0 0
5 55.0 20.0 10.0 19.0 149 159 87 0 1 0 0 1 0 1 0 0 1
6 15.0 30.0 10.0 26.0 0 199 81 0 0 0 0 0 1 0 0 0 0
7 25.0 30.0 10.0 3.0 99 109 36 0 0 0 0 0 1 0 0 0 0
8 20.0 50.0 10.0 5.0 0 198 94 1 1 0 0 1 0 0 1 0 0
9 10.0 43.0 10.0 9.0 95 105 36 1 0 1 0 1 0 1 0 0 0
10 55.0 60.0 10.0 16.0 97 107 0 0 0 1 0 1 0 0 1 0 0
11 30.0 60.0 10.0 16.0 124 134 40 0 0 1 0 0 0 0 0 0 0
12 20.0 65.0 10.0 12.0 67 77 89 1 0 0 0 1 0 0 1 0 1
13 50.0 35.0 10.0 19.0 0 205 91 0 0 0 1 0 0 0 0 0 0
14 30.0 25.0 10.0 23.0 159 169 75 0 1 0 0 0 0 0 0 0 0
15 15.0 10.0 10.0 20.0 32 42 97 0 0 0 0 0 1 0 0 0 0
16 30.0 5.0 10.0 8.0 61 71 88 0 1 1 0 1 0 0 1 0 0
17 10.0 20.0 10.0 19.0 75 85 69 0 0 0 0 1 0 0 0 1 0
18 5.0 30.0 10.0 2.0 157 167 75 1 0 0 0 1 0 0 0 0 0
19 20.0 40.0 10.0 12.0 87 97 68 1 0 0 0 0 0 0 0 0 0
20 15.0 60.0 10.0 17.0 76 86 23 0 0 1 0 1 0 0 1 0 0
21 45.0 65.0 10.0 9.0 126 136 26 1 0 0 1 0 0 1 0 0 1
22 45.0 20.0 10.0 11.0 0 201 59 0 0 0 0 1 0 1 0 0 0
23 45.0 10.0 10.0 18.0 97 107 56 0 0 0 0 0 0 0 0 1 0
24 55.0 5.0 10.0 29.0 68 78 77 0 0 0 1 0 0 0 0 0 0
25 65.0 35.0 10.0 3.0 153 163 46 0 0 0 0 0 0 0 0 0 1
26 65.0 20.0 10.0 6.0 172 182 40 0 0 0 0 0 1 0 0 0 0
27 45.0 30.0 10.0 17.0 0 208 97 0 0 0 1 1 0 0 0 0 0
28 35.0 40.0 10.0 16.0 37 47 1 0 0 0 0 0 0 0 1 1 0
29 41.0 37.0 10.0 16.0 39 49 86 0 0 0 0 0 0 0 1 0 0
30 64.0 42.0 10.0 9.0 63 73 58 0 0 0 0 0 1 0 0 0 0
31 40.0 60.0 10.0 21.0 71 81 3 0 0 0 0 1 0 0 1 0 0
32 31.0 52.0 10.0 27.0 0 202 65 0 0 1 1 0 0 0 0 1 1
33 35.0 69.0 10.0 23.0 141 151 70 0 0 0 0 0 1 0 0 0 0
34 53.0 52.0 10.0 11.0 37 47 62 1 0 0 0 1 0 0 0 1 0
35 65.0 55.0 10.0 14.0 0 183 89 1 0 1 0 0 0 0 0 0 0
36 63.0 65.0 10.0 8.0 143 153 66 1 0 0 1 0 1 0 0 1 0
37 2.0 60.0 10.0 5.0 41 51 93 0 0 0 0 1 0 0 0 0 1
38 20.0 20.0 10.0 8.0 0 198 87 0 0 0 0 0 0 0 0 0 1
39 5.0 5.0 10.0 16.0 83 93 43 0 0 0 0 0 1 0 0 0 0
40 60.0 12.0 10.0 31.0 44 54 82 1 0 0 0 0 1 0 1 0 1
41 40.0 25.0 10.0 9.0 85 95 82 0 0 1 0 1 0 0 1 0 0
42 42.0 7.0 10.0 5.0 97 107 65 0 0 0 0 0 1 0 0 0 0
43 24.0 12.0 10.0 5.0 31 41 70 1 0 0 0 0 0 0 0 1 0
44 23.0 3.0 10.0 7.0 132 142 70 0 0 0 0 0 0 0 0 1 0
45 11.0 14.0 10.0 18.0 69 79 13 0 0 0 0 0 1 0 0 0 0
46 6.0 38.0 10.0 16.0 32 42 56 0 0 0 1 0 0 0 0 0 1
47 2.0 48.0 10.0 1.0 117 127 51 1 1 1 0 0 0 0 0 1 0
48 8.0 56.0 10.0 27.0 51 61 44 1 0 1 0 1 0 0 0 0 0
49 13.0 52.0 10.0 36.0 0 192 80 0 0 1 0 1 0 0 0 0 0
50 6.0 68.0 10.0 30.0 108 118 75 0 0 0 1 1 1 1 0 0 1
51 47.0 47.0 10.0 13.0 0 203 59 0 0 0 0 1 0 1 0 0 1
52 49.0 58.0 10.0 10.0 88 98 2 0 0 0 0 0 1 1 1 0 0
53 27.0 43.0 10.0 9.0 0 208 40 1 1 0 0 0 0 0 1 0 0
54 37.0 31.0 10.0 14.0 95 105 93 0 0 0 0 0 1 0 0 0 0
55 57.0 29.0 10.0 18.0 140 150 86 0 0 1 0 0 0 0 1 0 0
56 63.0 23.0 10.0 2.0 136 146 82 0 0 0 0 1 0 1 0 1 0
57 53.0 12.0 10.0 6.0 130 140 97 1 0 0 0 0 1 0 0 0 0
58 32.0 12.0 10.0 7.0 101 111 82 0 0 0 0 1 1 1 0 1 1
59 36.0 26.0 10.0 18.0 200 210 42 0 0 0 1 0 1 1 0 0 0
60 21.0 24.0 10.0 28.0 0 202 41 1 0 0 1 1 1 0 0 1 0
61 17.0 34.0 10.0 3.0 162 172 37 0 0 0 0 0 1 0 0 0 0
62 12.0 24.0 10.0 13.0 76 86 18 0 0 0 0 0 1 0 0 0 0
63 24.0 58.0 10.0 19.0 58 68 47 0 0 0 0 0 1 0 0 0 0
64 27.0 69.0 10.0 10.0 34 44 7 0 1 0 0 0 0 0 1 0 0
65 15.0 77.0 10.0 9.0 73 83 24 0 0 0 0 0 0 0 1 0 1
66 62.0 77.0 10.0 20.0 51 61 27 0 0 0 0 0 0 1 0 0 0
67 49.0 73.0 10.0 25.0 127 137 97 0 0 1 0 0 0 0 1 0 1
68 67.0 5.0 10.0 25.0 83 93 76 0 0 0 0 0 1 0 0 0 0
69 56.0 39.0 10.0 36.0 142 152 14 1 0 1 0 0 1 0 0 0 0
70 37.0 47.0 10.0 6.0 50 60 65 1 0 0 0 1 0 0 0 0 1
71 37.0 56.0 10.0 5.0 182 192 94 1 0 0 0 0 0 0 0 1 0
72 57.0 68.0 10.0 15.0 77 87 13 0 0 0 0 0 1 0 0 0 1
73 47.0 16.0 10.0 25.0 0 197 97 0 0 0 0 1 0 0 0 0 0
74 44.0 17.0 10.0 9.0 78 88 7 0 0 1 1 0 0 0 0 1 0
75 46.0 13.0 10.0 8.0 149 159 19 0 0 0 0 0 1 1 0 0 0
76 49.0 11.0 10.0 18.0 0 192 10 0 0 0 1 0 1 1 0 0 0
77 49.0 42.0 10.0 13.0 73 83 35 1 0 0 0 0 0 0 0 0 0
78 53.0 43.0 10.0 14.0 179 189 98 0 0 0 0 1 0 0 0 0 0
79 61.0 52.0 10.0 3.0 96 106 66 0 0 0 0 0 1 0 0 0 0
80 57.0 48.0 10.0 23.0 92 102 65 0 0 0 0 0 0 0 0 1 0
81 56.0 37.0 10.0 6.0 182 192 69 0 0 0 1 0 1 0 1 0 0
82 55.0 54.0 10.0 26.0 94 104 65 0 0 0 0 0 1 1 1 0 0
83 15.0 47.0 10.0 16.0 0 196 34 0 1 0 0 0 0 1 0 0 0
84 14.0 37.0 10.0 11.0 0 198 33 0 0 1 1 0 0 1 0 0 0
85 11.0 31.0 10.0 7.0 101 111 98 0 0 0 0 0 1 0 0 0 0
86 16.0 22.0 10.0 41.0 0 196 96 0 1 0 1 0 0 1 0 0 0
87 4.0 18.0 10.0 35.0 94 104 30 0 0 0 0 0 1 0 0 0 0
88 28.0 18.0 10.0 26.0 93 103 56 0 0 0 0 1 0 0 0 0 1
89 26.0 52.0 10.0 9.0 74 84 15 1 0 1 1 0 0 0 0 0 0
90 26.0 35.0 10.0 15.0 176 186 58 0 0 1 0 0 0 0 0 1 0
91 31.0 67.0 10.0 3.0 95 105 35 0 1 1 0 1 1 1 0 0 0
92 15.0 19.0 10.0 1.0 0 194 99 1 0 0 0 0 0 0 0 0 0
93 22.0 22.0 10.0 2.0 18 28 23 0 0 0 1 0 0 0 0 0 0
94 18.0 24.0 10.0 22.0 188 198 38 0 1 1 0 0 0 0 0 0 0
95 26.0 27.0 10.0 27.0 0 207 49 0 0 0 0 1 0 0 1 0 0
96 25.0 24.0 10.0 20.0 0 205 87 0 0 0 0 0 1 0 0 0 0
97 22.0 27.0 10.0 11.0 0 204 10 1 0 1 0 1 1 0 0 0 0
98 25.0 21.0 10.0 12.0 133 143 7 0 0 0 0 0 1 0 0 0 0
99 19.0 21.0 10.0 10.0 0 198 66 1 0 0 0 0 1 0 0 0 0
100 20.0 26.0 10.0 9.0 83 93 33 0 0 0 0 1 0 0 0 0 0
101 18.0 18.0 10.0 17.0 185 195 34 0 0 0 0 0 0 0 0 1 0